p cnf 7230 16
6431 -6534 0
-5941 -6431 6533 0
6431 -6536 0
-5943 -6431 6535 0
-6533 6534 0
6531 6532 0
6411 -6532 0
-6411 -6531 0
6529 6530 0
6409 -6530 0
-6409 -6529 0
-6535 6536 0
5943 -6536 0
5941 -6534 0
5605 -6538 0
-6527 6528 0
